Máquinas: 30
Tarefas: 150

Datas de Entrega:
2429
1650
1258
1695
2242
995
1876
865
1375
1199
1613
2043
2365
1932
2020
1718
1413
1487
2169
2387
1257
2421
932
1584
1358
2112
2181
2250
2218
1977
2368
1117
1899
904
872
2140
2138
2340
1966
2248
1562
1352
1687
1739
1772
2338
1568
1059
1468
1055
2383
1089
1031
1251
1783
1049
1056
951
1558
2366
2505
1942
2022
1423
2069
1802
1470
2534
1006
1113
2497
927
1019
2182
2032
2034
1308
1539
1384
1928
1497
2380
1628
1540
2221
1698
2306
1118
2422
2160
2099
1812
1886
977
1218
954
2475
1008
1036
1897
930
1362
1963
1652
2541
1396
1167
2425
1417
2025
905
2439
902
1001
1014
1832
1685
1410
1860
2493
2215
1799
1233
924
1370
1405
1585
2517
2501
1863
2237
2377
1820
1726
2324
1847
1521
2036
2122
2403
2156
1605
1323
1898
1296
1008
2325
1995
1119
2012

Tempos de Processamento:
58 38 82 57 60 61 96 56 39 45 3 78 15 36 81 10 10 97 73 15 84 59 6 6 95 68 4 5 89 45 46 64 24 47 23 25 62 52 7 56 94 9 8 84 68 72 33 98 67 90 80 62 52 62 92 14 30 38 18 28 79 33 27 37 7 33 99 9 99 30 55 62 50 97 92 22 14 3 9 35 51 15 35 33 67 69 58 48 15 48 54 72 68 77 46 56 30 14 52 69 22 86 84 66 18 11 61 45 20 92 49 73 1 60 60 98 65 84 36 2 17 28 7 72 72 96 99 12 13 38 38 99 36 99 14 64 47 5 61 37 13 21 6 78 37 44 40 83 60 3 
3 92 50 94 79 98 71 9 27 25 79 93 13 54 95 6 5 35 7 19 75 9 25 24 81 97 63 10 39 93 71 36 29 7 33 21 18 12 58 81 49 91 91 44 92 25 62 76 72 18 93 84 64 82 18 50 85 11 95 63 62 25 43 13 72 3 81 78 20 91 17 67 60 84 88 5 95 26 94 81 39 61 22 19 25 33 33 83 85 5 2 91 52 2 17 62 65 37 60 34 1 74 31 53 76 30 24 95 33 74 54 41 94 64 96 13 96 17 9 6 73 6 57 10 97 57 23 76 29 62 100 66 79 24 98 95 87 33 43 38 45 79 63 40 70 36 36 64 80 31 
10 83 45 43 34 25 71 32 3 88 18 25 98 74 29 12 9 16 40 66 95 40 26 69 1 84 93 85 5 64 35 17 58 88 8 75 47 4 36 8 81 65 80 49 67 93 85 54 81 58 96 23 45 18 53 10 50 36 67 23 19 100 14 86 98 85 56 46 42 15 73 85 28 50 72 75 95 40 68 69 95 15 42 21 92 62 12 19 29 25 94 12 58 75 38 24 55 88 8 68 97 87 50 20 93 4 91 99 62 68 79 21 56 24 100 100 72 1 96 21 67 20 39 77 43 39 46 96 39 29 34 94 10 75 100 89 47 33 61 5 64 13 40 51 48 41 62 56 50 72 
50 67 88 22 25 61 71 26 63 53 81 28 56 7 7 53 97 90 57 63 40 6 93 70 11 36 77 34 69 1 22 89 56 97 80 97 82 39 3 20 93 43 70 66 13 31 22 19 62 57 63 7 23 47 14 14 71 56 81 62 71 80 22 19 42 90 54 82 30 51 13 0 0 0 0 0 0 0 0 0 0 0 0 0 0 0 0 0 0 0 0 0 0 0 0 0 0 0 0 0 0 0 0 0 0 0 0 0 0 0 0 0 0 0 0 0 0 0 0 0 0 0 0 0 0 0 0 0 0 0 0 0 0 0 0 0 0 0 0 0 0 0 0 0 0 0 0 0 0 0 
0 0 0 0 0 0 0 0 0 0 0 0 0 0 0 0 0 0 0 0 0 0 0 0 0 0 0 0 0 0 0 0 0 0 0 0 0 0 0 0 0 0 0 0 0 0 0 0 0 0 0 0 0 0 0 0 0 0 0 0 0 0 0 0 0 0 0 0 0 0 0 0 0 0 0 0 0 0 0 0 0 0 0 0 0 0 0 0 0 0 0 0 0 0 0 0 0 0 0 0 0 0 0 0 0 0 0 0 0 0 0 0 0 0 0 0 0 0 0 0 0 0 0 0 0 0 0 0 0 0 0 0 0 0 0 0 0 0 0 0 0 0 0 0 0 0 0 0 0 0 
0 0 0 0 0 0 0 0 0 0 0 0 0 0 0 0 0 0 0 0 0 0 0 0 0 0 0 0 0 0 0 0 0 0 0 0 0 0 0 0 0 0 0 0 0 0 0 0 0 0 0 0 0 0 0 0 0 0 0 0 0 0 0 0 0 0 0 0 0 0 0 0 0 0 0 0 0 0 0 0 0 0 0 0 0 0 0 0 0 0 0 0 0 0 0 0 0 0 0 0 0 0 0 0 0 0 0 0 0 0 0 0 0 0 0 0 0 0 0 0 0 0 0 0 0 0 0 0 0 0 0 0 0 0 0 0 0 0 0 0 0 0 0 0 0 0 0 0 0 0 
0 0 0 0 0 0 0 0 0 0 0 0 0 0 0 0 0 0 0 0 0 0 0 0 0 0 0 0 0 0 0 0 0 0 0 0 0 0 0 0 0 0 0 0 0 0 0 0 0 0 0 0 0 0 0 0 0 0 0 0 0 0 0 0 0 0 0 0 0 0 0 0 0 0 0 0 0 0 0 0 0 0 0 0 0 0 0 0 0 0 0 0 0 0 0 0 0 0 0 0 0 0 0 0 0 0 0 0 0 0 0 0 0 0 0 0 0 0 0 0 0 0 0 0 0 0 0 0 0 0 0 0 0 0 0 0 0 0 0 0 0 0 0 0 0 0 0 0 0 0 
0 0 0 0 0 0 0 0 0 0 0 0 0 0 0 0 0 0 0 0 0 0 0 0 0 0 0 0 0 0 0 0 0 0 0 0 0 0 0 0 0 0 0 0 0 0 0 0 0 0 0 0 0 0 0 0 0 0 0 0 0 0 0 0 0 0 0 0 0 0 0 0 0 0 0 0 0 0 0 0 0 0 0 0 0 0 0 0 0 0 0 0 0 0 0 0 0 0 0 0 0 0 0 0 0 0 0 0 0 0 0 0 0 0 0 0 0 0 0 0 0 0 0 0 0 0 0 0 0 0 0 0 0 0 0 0 0 0 0 0 0 0 0 0 0 0 0 0 0 0 
0 0 0 0 0 0 0 0 0 0 0 0 0 0 0 0 0 0 0 0 0 0 0 0 0 0 0 0 0 0 0 0 0 0 0 0 0 0 0 0 0 0 0 0 0 0 0 0 0 0 0 0 0 0 0 0 0 0 0 0 0 0 0 0 0 0 0 0 0 0 0 0 0 0 0 0 0 0 0 0 0 0 0 0 0 0 0 0 0 0 0 0 0 0 0 0 0 0 0 0 0 0 0 0 0 0 0 0 0 0 0 0 0 0 0 0 0 0 0 0 0 0 0 0 0 0 0 0 0 0 0 0 0 0 0 0 0 0 0 0 0 0 0 0 0 0 0 0 0 0 
0 0 0 0 0 0 0 0 0 0 0 0 0 0 0 0 0 0 0 0 0 0 0 0 0 0 0 0 0 0 0 0 0 0 0 0 0 0 0 0 0 0 0 0 0 0 0 0 0 0 0 0 0 0 0 0 0 0 0 0 0 0 0 0 0 0 0 0 0 0 0 0 0 0 0 0 0 0 0 0 0 0 0 0 0 0 0 0 0 0 0 0 0 0 0 0 0 0 0 0 0 0 0 0 0 0 0 0 0 0 0 0 0 0 0 0 0 0 0 0 0 0 0 0 0 0 0 0 0 0 0 0 0 0 0 0 0 0 0 0 0 0 0 0 0 0 0 0 0 0 
0 0 0 0 0 0 0 0 0 0 0 0 0 0 0 0 0 0 0 0 0 0 0 0 0 0 0 0 0 0 0 0 0 0 0 0 0 0 0 0 0 0 0 0 0 0 0 0 0 0 0 0 0 0 0 0 0 0 0 0 0 0 0 0 0 0 0 0 0 0 0 0 0 0 0 0 0 0 0 0 0 0 0 0 0 0 0 0 0 0 0 0 0 0 0 0 0 0 0 0 0 0 0 0 0 0 0 0 0 0 0 0 0 0 0 0 0 0 0 0 0 0 0 0 0 0 0 0 0 0 0 0 0 0 0 0 0 0 0 0 0 0 0 0 0 0 0 0 0 0 
0 0 0 0 0 0 0 0 0 0 0 0 0 0 0 0 0 0 0 0 0 0 0 0 0 0 0 0 0 0 0 0 0 0 0 0 0 0 0 0 0 0 0 0 0 0 0 0 0 0 0 0 0 0 0 0 0 0 0 0 0 0 0 0 0 0 0 0 0 0 0 0 0 0 0 0 0 0 0 0 0 0 0 0 0 0 0 0 0 0 0 0 0 0 0 0 0 0 0 0 0 0 0 0 0 0 0 0 0 0 0 0 0 0 0 0 0 0 0 0 0 0 0 0 0 0 0 0 0 0 0 0 0 0 0 0 0 0 0 0 0 0 0 0 0 0 0 0 0 0 
0 0 0 0 0 0 0 0 0 0 0 0 0 0 0 0 0 0 0 0 0 0 0 0 0 0 0 0 0 0 0 0 0 0 0 0 0 0 0 0 0 0 0 0 0 0 0 0 0 0 0 0 0 0 0 0 0 0 0 0 0 0 0 0 0 0 0 0 0 0 0 0 0 0 0 0 0 0 0 0 0 0 0 0 0 0 0 0 0 0 0 0 0 0 0 0 0 0 0 0 0 0 0 0 0 0 0 0 0 0 0 0 0 0 0 0 0 0 0 0 0 0 0 0 0 0 0 0 0 0 0 0 0 0 0 0 0 0 0 0 0 0 0 0 0 0 0 0 0 0 
0 0 0 0 0 0 0 0 0 0 0 0 0 0 0 0 0 0 0 0 0 0 0 0 0 0 0 0 0 0 0 0 0 0 0 0 0 0 0 0 0 0 0 0 0 0 0 0 0 0 0 0 0 0 0 0 0 0 0 0 0 0 0 0 0 0 0 0 0 0 0 0 0 0 0 0 0 0 0 0 0 0 0 0 0 0 0 0 0 0 0 0 0 0 0 0 0 0 0 0 0 0 0 0 0 0 0 0 0 0 0 0 0 0 0 0 0 0 0 0 0 0 0 0 0 0 0 0 0 0 0 0 0 0 0 0 0 0 0 0 0 0 0 0 0 0 0 0 0 0 
0 0 0 0 0 0 0 0 0 0 0 0 0 0 0 0 0 0 0 0 0 0 0 0 0 0 0 0 0 0 0 0 0 0 0 0 0 0 0 0 0 0 0 0 0 0 0 0 0 0 0 0 0 0 0 0 0 0 0 0 0 0 0 0 0 0 0 0 0 0 0 0 0 0 0 0 0 0 0 0 0 0 0 0 0 0 0 0 0 0 0 0 0 0 0 0 0 0 0 0 0 0 0 0 0 0 0 0 0 0 0 0 0 0 0 0 0 0 0 0 0 0 0 0 0 0 0 0 0 0 0 0 0 0 0 0 0 0 0 0 0 0 0 0 0 0 0 0 0 0 
0 0 0 0 0 0 0 0 0 0 0 0 0 0 0 0 0 0 0 0 0 0 0 0 0 0 0 0 0 0 0 0 0 0 0 0 0 0 0 0 0 0 0 0 0 0 0 0 0 0 0 0 0 0 0 0 0 0 0 0 0 0 0 0 0 0 0 0 0 0 0 0 0 0 0 0 0 0 0 0 0 0 0 0 0 0 0 0 0 0 0 0 0 0 0 0 0 0 0 0 0 0 0 0 0 0 0 0 0 0 0 0 0 0 0 0 0 0 0 0 0 0 0 0 0 0 0 0 0 0 0 0 0 0 0 0 0 0 0 0 0 0 0 0 0 0 0 0 0 0 
0 0 0 0 0 0 0 0 0 0 0 0 0 0 0 0 0 0 0 0 0 0 0 0 0 0 0 0 0 0 0 0 0 0 0 0 0 0 0 0 0 0 0 0 0 0 0 0 0 0 0 0 0 0 0 0 0 0 0 0 0 0 0 0 0 0 0 0 0 0 0 0 0 0 0 0 0 0 0 0 0 0 0 0 0 0 0 0 0 0 0 0 0 0 0 0 0 0 0 0 0 0 0 0 0 0 0 0 0 0 0 0 0 0 0 0 0 0 0 0 0 0 0 0 0 0 0 0 0 0 0 0 0 0 0 0 0 0 0 0 0 0 0 0 0 0 0 0 0 0 
0 0 0 0 0 0 0 0 0 0 0 0 0 0 0 0 0 0 0 0 0 0 0 0 0 0 0 0 0 0 0 0 0 0 0 0 0 0 0 0 0 0 0 0 0 0 0 0 0 0 0 0 0 0 0 0 0 0 0 0 0 0 0 0 0 0 0 0 0 0 0 0 0 0 0 0 0 0 0 0 0 0 0 0 0 0 0 0 0 0 0 0 0 0 0 0 0 0 0 0 0 0 0 0 0 0 0 0 0 0 0 0 0 0 0 0 0 0 0 0 0 0 0 0 0 0 0 0 0 0 0 0 0 0 0 0 0 0 0 0 0 0 0 0 0 0 0 0 0 0 
0 0 0 0 0 0 0 0 0 0 0 0 0 0 0 0 0 0 0 0 0 0 0 0 0 0 0 0 0 0 0 0 0 0 0 0 0 0 0 0 0 0 0 0 0 0 0 0 0 0 0 0 0 0 0 0 0 0 0 0 0 0 0 0 0 0 0 0 0 0 0 0 0 0 0 0 0 0 0 0 0 0 0 0 0 0 0 0 0 0 0 0 0 0 0 0 0 0 0 0 0 0 0 0 0 0 0 0 0 0 0 0 0 0 0 0 0 0 0 0 0 0 0 0 0 0 0 0 0 0 0 0 0 0 0 0 0 0 0 0 0 0 0 0 0 0 0 0 0 0 
0 0 0 0 0 0 0 0 0 0 0 0 0 0 0 0 0 0 0 0 0 0 0 0 0 0 0 0 0 0 0 0 0 0 0 0 0 0 0 0 0 0 0 0 0 0 0 0 0 0 0 0 0 0 0 0 0 0 0 0 0 0 0 0 0 0 0 0 0 0 0 0 0 0 0 0 0 0 0 0 0 0 0 0 0 0 0 0 0 0 0 0 0 0 0 0 0 0 0 0 0 0 0 0 0 0 0 0 0 0 0 0 0 0 0 0 0 0 0 0 0 0 0 0 0 0 0 0 0 0 0 0 0 0 0 0 0 0 0 0 0 0 0 0 0 0 0 0 0 0 
0 0 0 0 0 0 0 0 0 0 0 0 0 0 0 0 0 0 0 0 0 0 0 0 0 0 0 0 0 0 0 0 0 0 0 0 0 0 0 0 0 0 0 0 0 0 0 0 0 0 0 0 0 0 0 0 0 0 0 0 0 0 0 0 0 0 0 0 0 0 0 0 0 0 0 0 0 0 0 0 0 0 0 0 0 0 0 0 0 0 0 0 0 0 0 0 0 0 0 0 0 0 0 0 0 0 0 0 0 0 0 0 0 0 0 0 0 0 0 0 0 0 0 0 0 0 0 0 0 0 0 0 0 0 0 0 0 0 0 0 0 0 0 0 0 0 0 0 0 0 
0 0 0 0 0 0 0 0 0 0 0 0 0 0 0 0 0 0 0 0 0 0 0 0 0 0 0 0 0 0 0 0 0 0 0 0 0 0 0 0 0 0 0 0 0 0 0 0 0 0 0 0 0 0 0 0 0 0 0 0 0 0 0 0 0 0 0 0 0 0 0 0 0 0 0 0 0 0 0 0 0 0 0 0 0 0 0 0 0 0 0 0 0 0 0 0 0 0 0 0 0 0 0 0 0 0 0 0 0 0 0 0 0 0 0 0 0 0 0 0 0 0 0 0 0 0 0 0 0 0 0 0 0 0 0 0 0 0 0 0 0 0 0 0 0 0 0 0 0 0 
0 0 0 0 0 0 0 0 0 0 0 0 0 0 0 0 0 0 0 0 0 0 0 0 0 0 0 0 0 0 0 0 0 0 0 0 0 0 0 0 0 0 0 0 0 0 0 0 0 0 0 0 0 0 0 0 0 0 0 0 0 0 0 0 0 0 0 0 0 0 0 0 0 0 0 0 0 0 0 0 0 0 0 0 0 0 0 0 0 0 0 0 0 0 0 0 0 0 0 0 0 0 0 0 0 0 0 0 0 0 0 0 0 0 0 0 0 0 0 0 0 0 0 0 0 0 0 0 0 0 0 0 0 0 0 0 0 0 0 0 0 0 0 0 0 0 0 0 0 0 
0 0 0 0 0 0 0 0 0 0 0 0 0 0 0 0 0 0 0 0 0 0 0 0 0 0 0 0 0 0 0 0 0 0 0 0 0 0 0 0 0 0 0 0 0 0 0 0 0 0 0 0 0 0 0 0 0 0 0 0 0 0 0 0 0 0 0 0 0 0 0 0 0 0 0 0 0 0 0 0 0 0 0 0 0 0 0 0 0 0 0 0 0 0 0 0 0 0 0 0 0 0 0 0 0 0 0 0 0 0 0 0 0 0 0 0 0 0 0 0 0 0 0 0 0 0 0 0 0 0 0 0 0 0 0 0 0 0 0 0 0 0 0 0 0 0 0 0 0 0 
0 0 0 0 0 0 0 0 0 0 0 0 0 0 0 0 0 0 0 0 0 0 0 0 0 0 0 0 0 0 0 0 0 0 0 0 0 0 0 0 0 0 0 0 0 0 0 0 0 0 0 0 0 0 0 0 0 0 0 0 0 0 0 0 0 0 0 0 0 0 0 0 0 0 0 0 0 0 0 0 0 0 0 0 0 0 0 0 0 0 0 0 0 0 0 0 0 0 0 0 0 0 0 0 0 0 0 0 0 0 0 0 0 0 0 0 0 0 0 0 0 0 0 0 0 0 0 0 0 0 0 0 0 0 0 0 0 0 0 0 0 0 0 0 0 0 0 0 0 0 
0 0 0 0 0 0 0 0 0 0 0 0 0 0 0 0 0 0 0 0 0 0 0 0 0 0 0 0 0 0 0 0 0 0 0 0 0 0 0 0 0 0 0 0 0 0 0 0 0 0 0 0 0 0 0 0 0 0 0 0 0 0 0 0 0 0 0 0 0 0 0 0 0 0 0 0 0 0 0 0 0 0 0 0 0 0 0 0 0 0 0 0 0 0 0 0 0 0 0 0 0 0 0 0 0 0 0 0 0 0 0 0 0 0 0 0 0 0 0 0 0 0 0 0 0 0 0 0 0 0 0 0 0 0 0 0 0 0 0 0 0 0 0 0 0 0 0 0 0 0 
0 0 0 0 0 0 0 0 0 0 0 0 0 0 0 0 0 0 0 0 0 0 0 0 0 0 0 0 0 0 0 0 0 0 0 0 0 0 0 0 0 0 0 0 0 0 0 0 0 0 0 0 0 0 0 0 0 0 0 0 0 0 0 0 0 0 0 0 0 0 0 0 0 0 0 0 0 0 0 0 0 0 0 0 0 0 0 0 0 0 0 0 0 0 0 0 0 0 0 0 0 0 0 0 0 0 0 0 0 0 0 0 0 0 0 0 0 0 0 0 0 0 0 0 0 0 0 0 0 0 0 0 0 0 0 0 0 0 0 0 0 0 0 0 0 0 0 0 0 0 
0 0 0 0 0 0 0 0 0 0 0 0 0 0 0 0 0 0 0 0 0 0 0 0 0 0 0 0 0 0 0 0 0 0 0 0 0 0 0 0 0 0 0 0 0 0 0 0 0 0 0 0 0 0 0 0 0 0 0 0 0 0 0 0 0 0 0 0 0 0 0 0 0 0 0 0 0 0 0 0 0 0 0 0 0 0 0 0 0 0 0 0 0 0 0 0 0 0 0 0 0 0 0 0 0 0 0 0 0 0 0 0 0 0 0 0 0 0 0 0 0 0 0 0 0 0 0 0 0 0 0 0 0 0 0 0 0 0 0 0 0 0 0 0 0 0 0 0 0 0 
0 0 0 0 0 0 0 0 0 0 0 0 0 0 0 0 0 0 0 0 0 0 0 0 0 0 0 0 0 0 0 0 0 0 0 0 0 0 0 0 0 0 0 0 0 0 0 0 0 0 0 0 0 0 0 0 0 0 0 0 0 0 0 0 0 0 0 0 0 0 0 0 0 0 0 0 0 0 0 0 0 0 0 0 0 0 0 0 0 0 0 0 0 0 0 0 0 0 0 0 0 0 0 0 0 0 0 0 0 0 0 0 0 0 0 0 0 0 0 0 0 0 0 0 0 0 0 0 0 0 0 0 0 0 0 0 0 0 0 0 0 0 0 0 0 0 0 0 0 0 
0 0 0 0 0 0 0 0 0 0 0 0 0 0 0 0 0 0 0 0 0 0 0 0 0 0 0 0 0 0 0 0 0 0 0 0 0 0 0 0 0 0 0 0 0 0 0 0 0 0 0 0 0 0 0 0 0 0 0 0 0 0 0 0 0 0 0 0 0 0 0 0 0 0 0 0 0 0 0 0 0 0 0 0 0 0 0 0 0 0 0 0 0 0 0 0 0 0 0 0 0 0 0 0 0 0 0 0 0 0 0 0 0 0 0 0 0 0 0 0 0 0 0 0 0 0 0 0 0 0 0 0 0 0 0 0 0 0 0 0 0 0 0 0 0 0 0 0 0 0 

Ordenação por dueDates - Solução Inicial:
(8, 865)
(35, 872)
(113, 902)
(34, 904)
(111, 905)
(124, 924)
(72, 927)
(101, 930)
(23, 932)
(58, 951)
(96, 954)
(94, 977)
(6, 995)
(114, 1001)
(69, 1006)
(98, 1008)
(146, 1008)
(115, 1014)
(73, 1019)
(53, 1031)
(99, 1036)
(56, 1049)
(50, 1055)
(57, 1056)
(48, 1059)
(52, 1089)
(70, 1113)
(32, 1117)
(88, 1118)
(149, 1119)
(107, 1167)
(10, 1199)
(95, 1218)
(123, 1233)
(54, 1251)
(21, 1257)
(3, 1258)
(145, 1296)
(77, 1308)
(143, 1323)
(42, 1352)
(25, 1358)
(102, 1362)
(125, 1370)
(9, 1375)
(79, 1384)
(106, 1396)
(126, 1405)
(118, 1410)
(17, 1413)
(109, 1417)
(64, 1423)
(49, 1468)
(67, 1470)
(18, 1487)
(81, 1497)
(137, 1521)
(78, 1539)
(84, 1540)
(59, 1558)
(41, 1562)
(47, 1568)
(24, 1584)
(127, 1585)
(142, 1605)
(11, 1613)
(83, 1628)
(2, 1650)
(104, 1652)
(117, 1685)
(43, 1687)
(4, 1695)
(86, 1698)
(16, 1718)
(134, 1726)
(44, 1739)
(45, 1772)
(55, 1783)
(122, 1799)
(66, 1802)
(92, 1812)
(133, 1820)
(116, 1832)
(136, 1847)
(119, 1860)
(130, 1863)
(7, 1876)
(93, 1886)
(100, 1897)
(144, 1898)
(33, 1899)
(80, 1928)
(14, 1932)
(62, 1942)
(103, 1963)
(39, 1966)
(30, 1977)
(148, 1995)
(150, 2012)
(15, 2020)
(63, 2022)
(110, 2025)
(75, 2032)
(76, 2034)
(138, 2036)
(12, 2043)
(65, 2069)
(91, 2099)
(26, 2112)
(139, 2122)
(37, 2138)
(36, 2140)
(141, 2156)
(90, 2160)
(19, 2169)
(27, 2181)
(74, 2182)
(121, 2215)
(29, 2218)
(85, 2221)
(131, 2237)
(5, 2242)
(40, 2248)
(28, 2250)
(87, 2306)
(135, 2324)
(147, 2325)
(46, 2338)
(38, 2340)
(13, 2365)
(60, 2366)
(31, 2368)
(132, 2377)
(82, 2380)
(51, 2383)
(20, 2387)
(140, 2403)
(22, 2421)
(89, 2422)
(108, 2425)
(1, 2429)
(112, 2439)
(97, 2475)
(120, 2493)
(71, 2497)
(129, 2501)
(61, 2505)
(128, 2517)
(68, 2534)
(105, 2541)

Calculo do completion time:
56 65 97 123 123 123 123 123 123 123 123 123 123 123 123 123 123 123 123 123 123 123 123 123 123 123 123 123 123 123 
79 112 120 203 203 203 203 203 203 203 203 203 203 203 203 203 203 203 203 203 203 203 203 203 203 203 203 203 203 203 
80 206 262 262 262 262 262 262 262 262 262 262 262 262 262 262 262 262 262 262 262 262 262 262 262 262 262 262 262 262 
127 213 350 447 447 447 447 447 447 447 447 447 447 447 447 447 447 447 447 447 447 447 447 447 447 447 447 447 447 447 
176 267 429 447 447 447 447 447 447 447 447 447 447 447 447 447 447 447 447 447 447 447 447 447 447 447 447 447 447 447 
248 277 506 506 506 506 506 506 506 506 506 506 506 506 506 506 506 506 506 506 506 506 506 506 506 506 506 506 506 506 
310 377 591 591 591 591 591 591 591 591 591 591 591 591 591 591 591 591 591 591 591 591 591 591 591 591 591 591 591 591 
332 378 688 688 688 688 688 688 688 688 688 688 688 688 688 688 688 688 688 688 688 688 688 688 688 688 688 688 688 688 
338 403 714 807 807 807 807 807 807 807 807 807 807 807 807 807 807 807 807 807 807 807 807 807 807 807 807 807 807 807 
376 414 750 863 863 863 863 863 863 863 863 863 863 863 863 863 863 863 863 863 863 863 863 863 863 863 863 863 863 863 
432 494 774 863 863 863 863 863 863 863 863 863 863 863 863 863 863 863 863 863 863 863 863 863 863 863 863 863 863 863 
509 511 849 863 863 863 863 863 863 863 863 863 863 863 863 863 863 863 863 863 863 863 863 863 863 863 863 863 863 863 
570 668 874 935 935 935 935 935 935 935 935 935 935 935 935 935 935 935 935 935 935 935 935 935 935 935 935 935 935 935 
630 732 898 935 935 935 935 935 935 935 935 935 935 935 935 935 935 935 935 935 935 935 935 935 935 935 935 935 935 935 
729 752 940 970 970 970 970 970 970 970 970 970 970 970 970 970 970 970 970 970 970 970 970 970 970 970 970 970 970 970 
743 789 1028 1028 1028 1028 1028 1028 1028 1028 1028 1028 1028 1028 1028 1028 1028 1028 1028 1028 1028 1028 1028 1028 1028 1028 1028 1028 1028 1028 
787 825 1069 1069 1069 1069 1069 1069 1069 1069 1069 1069 1069 1069 1069 1069 1069 1069 1069 1069 1069 1069 1069 1069 1069 1069 1069 1069 1069 1069 
847 943 1169 1169 1169 1169 1169 1169 1169 1169 1169 1169 1169 1169 1169 1169 1169 1169 1169 1169 1169 1169 1169 1169 1169 1169 1169 1169 1169 1169 
897 1003 1197 1197 1197 1197 1197 1197 1197 1197 1197 1197 1197 1197 1197 1197 1197 1197 1197 1197 1197 1197 1197 1197 1197 1197 1197 1197 1197 1197 
949 1067 1242 1265 1265 1265 1265 1265 1265 1265 1265 1265 1265 1265 1265 1265 1265 1265 1265 1265 1265 1265 1265 1265 1265 1265 1265 1265 1265 1265 
1001 1127 1250 1265 1265 1265 1265 1265 1265 1265 1265 1265 1265 1265 1265 1265 1265 1265 1265 1265 1265 1265 1265 1265 1265 1265 1265 1265 1265 1265 
1015 1177 1260 1279 1279 1279 1279 1279 1279 1279 1279 1279 1279 1279 1279 1279 1279 1279 1279 1279 1279 1279 1279 1279 1279 1279 1279 1279 1279 1279 
1105 1195 1318 1375 1375 1375 1375 1375 1375 1375 1375 1375 1375 1375 1375 1375 1375 1375 1375 1375 1375 1375 1375 1375 1375 1375 1375 1375 1375 1375 
1135 1280 1368 1446 1446 1446 1446 1446 1446 1446 1446 1446 1446 1446 1446 1446 1446 1446 1446 1446 1446 1446 1446 1446 1446 1446 1446 1446 1446 1446 
1233 1356 1422 1465 1465 1465 1465 1465 1465 1465 1465 1465 1465 1465 1465 1465 1465 1465 1465 1465 1465 1465 1465 1465 1465 1465 1465 1465 1465 1465 
1295 1440 1463 1472 1472 1472 1472 1472 1472 1472 1472 1472 1472 1472 1472 1472 1472 1472 1472 1472 1472 1472 1472 1472 1472 1472 1472 1472 1472 1472 
1325 1531 1546 1597 1597 1597 1597 1597 1597 1597 1597 1597 1597 1597 1597 1597 1597 1597 1597 1597 1597 1597 1597 1597 1597 1597 1597 1597 1597 1597 
1389 1567 1584 1686 1686 1686 1686 1686 1686 1686 1686 1686 1686 1686 1686 1686 1686 1686 1686 1686 1686 1686 1686 1686 1686 1686 1686 1686 1686 1686 
1437 1650 1669 1686 1686 1686 1686 1686 1686 1686 1686 1686 1686 1686 1686 1686 1686 1686 1686 1686 1686 1686 1686 1686 1686 1686 1686 1686 1686 1686 
1497 1730 1780 1780 1780 1780 1780 1780 1780 1780 1780 1780 1780 1780 1780 1780 1780 1780 1780 1780 1780 1780 1780 1780 1780 1780 1780 1780 1780 1780 
1558 1754 1871 1871 1871 1871 1871 1871 1871 1871 1871 1871 1871 1871 1871 1871 1871 1871 1871 1871 1871 1871 1871 1871 1871 1871 1871 1871 1871 1871 
1603 1779 1959 2012 2012 2012 2012 2012 2012 2012 2012 2012 2012 2012 2012 2012 2012 2012 2012 2012 2012 2012 2012 2012 2012 2012 2012 2012 2012 2012 
1649 1796 1997 2012 2012 2012 2012 2012 2012 2012 2012 2012 2012 2012 2012 2012 2012 2012 2012 2012 2012 2012 2012 2012 2012 2012 2012 2012 2012 2012 
1656 1853 2036 2036 2036 2036 2036 2036 2036 2036 2036 2036 2036 2036 2036 2036 2036 2036 2036 2036 2036 2036 2036 2036 2036 2036 2036 2036 2036 2036 
1718 1935 2054 2101 2101 2101 2101 2101 2101 2101 2101 2101 2101 2101 2101 2101 2101 2101 2101 2101 2101 2101 2101 2101 2101 2101 2101 2101 2101 2101 
1802 2010 2149 2189 2189 2189 2189 2189 2189 2189 2189 2189 2189 2189 2189 2189 2189 2189 2189 2189 2189 2189 2189 2189 2189 2189 2189 2189 2189 2189 
1884 2060 2194 2282 2282 2282 2282 2282 2282 2282 2282 2282 2282 2282 2282 2282 2282 2282 2282 2282 2282 2282 2282 2282 2282 2282 2282 2282 2282 2282 
1921 2130 2242 2282 2282 2282 2282 2282 2282 2282 2282 2282 2282 2282 2282 2282 2282 2282 2282 2282 2282 2282 2282 2282 2282 2282 2282 2282 2282 2282 
1935 2225 2337 2337 2337 2337 2337 2337 2337 2337 2337 2337 2337 2337 2337 2337 2337 2337 2337 2337 2337 2337 2337 2337 2337 2337 2337 2337 2337 2337 
1941 2288 2377 2377 2377 2377 2377 2377 2377 2377 2377 2377 2377 2377 2377 2377 2377 2377 2377 2377 2377 2377 2377 2377 2377 2377 2377 2377 2377 2377 
1950 2379 2444 2487 2487 2487 2487 2487 2487 2487 2487 2487 2487 2487 2487 2487 2487 2487 2487 2487 2487 2487 2487 2487 2487 2487 2487 2487 2487 2487 
2045 2460 2461 2498 2498 2498 2498 2498 2498 2498 2498 2498 2498 2498 2498 2498 2498 2498 2498 2498 2498 2498 2498 2498 2498 2498 2498 2498 2498 2498 
2131 2534 2621 2621 2621 2621 2621 2621 2621 2621 2621 2621 2621 2621 2621 2621 2621 2621 2621 2621 2621 2621 2621 2621 2621 2621 2621 2621 2621 2621 
2203 2631 2674 2674 2674 2674 2674 2674 2674 2674 2674 2674 2674 2674 2674 2674 2674 2674 2674 2674 2674 2674 2674 2674 2674 2674 2674 2674 2674 2674 
2242 2658 2677 2740 2740 2740 2740 2740 2740 2740 2740 2740 2740 2740 2740 2740 2740 2740 2740 2740 2740 2740 2740 2740 2740 2740 2740 2740 2740 2740 
2251 2752 2820 2820 2820 2820 2820 2820 2820 2820 2820 2820 2820 2820 2820 2820 2820 2820 2820 2820 2820 2820 2820 2820 2820 2820 2820 2820 2820 2820 
2262 2782 2824 2824 2824 2824 2824 2824 2824 2824 2824 2824 2824 2824 2824 2824 2824 2824 2824 2824 2824 2824 2824 2824 2824 2824 2824 2824 2824 2824 
2358 2839 2878 2878 2878 2878 2878 2878 2878 2878 2878 2878 2878 2878 2878 2878 2878 2878 2878 2878 2878 2878 2878 2878 2878 2878 2878 2878 2878 2878 
2442 2856 2879 2879 2879 2879 2879 2879 2879 2879 2879 2879 2879 2879 2879 2879 2879 2879 2879 2879 2879 2879 2879 2879 2879 2879 2879 2879 2879 2879 
2452 2861 2888 2985 2985 2985 2985 2985 2985 2985 2985 2985 2985 2985 2985 2985 2985 2985 2985 2985 2985 2985 2985 2985 2985 2985 2985 2985 2985 2985 
2472 2894 2956 2985 2985 2985 2985 2985 2985 2985 2985 2985 2985 2985 2985 2985 2985 2985 2985 2985 2985 2985 2985 2985 2985 2985 2985 2985 2985 2985 
2509 2907 3042 3061 3061 3061 3061 3061 3061 3061 3061 3061 3061 3061 3061 3061 3061 3061 3061 3061 3061 3061 3061 3061 3061 3061 3061 3061 3061 3061 
2576 2979 3123 3185 3185 3185 3185 3185 3185 3185 3185 3185 3185 3185 3185 3185 3185 3185 3185 3185 3185 3185 3185 3185 3185 3185 3185 3185 3185 3185 
2675 3060 3179 3239 3239 3239 3239 3239 3239 3239 3239 3239 3239 3239 3239 3239 3239 3239 3239 3239 3239 3239 3239 3239 3239 3239 3239 3239 3239 3239 
2772 3095 3195 3329 3329 3329 3329 3329 3329 3329 3329 3329 3329 3329 3329 3329 3329 3329 3329 3329 3329 3329 3329 3329 3329 3329 3329 3329 3329 3329 
2823 3134 3290 3329 3329 3329 3329 3329 3329 3329 3329 3329 3329 3329 3329 3329 3329 3329 3329 3329 3329 3329 3329 3329 3329 3329 3329 3329 3329 3329 
2870 3221 3337 3337 3337 3337 3337 3337 3337 3337 3337 3337 3337 3337 3337 3337 3337 3337 3337 3337 3337 3337 3337 3337 3337 3337 3337 3337 3337 3337 
2873 3247 3377 3377 3377 3377 3377 3377 3377 3377 3377 3377 3377 3377 3377 3377 3377 3377 3377 3377 3377 3377 3377 3377 3377 3377 3377 3377 3377 3377 
2906 3266 3398 3398 3398 3398 3398 3398 3398 3398 3398 3398 3398 3398 3398 3398 3398 3398 3398 3398 3398 3398 3398 3398 3398 3398 3398 3398 3398 3398 
2924 3361 3465 3546 3546 3546 3546 3546 3546 3546 3546 3546 3546 3546 3546 3546 3546 3546 3546 3546 3546 3546 3546 3546 3546 3546 3546 3546 3546 3546 
3018 3410 3546 3639 3639 3639 3639 3639 3639 3639 3639 3639 3639 3639 3639 3639 3639 3639 3639 3639 3639 3639 3639 3639 3639 3639 3639 3639 3639 3639 
3051 3472 3631 3661 3661 3661 3661 3661 3661 3661 3661 3661 3661 3661 3661 3661 3661 3661 3661 3661 3661 3661 3661 3661 3661 3661 3661 3661 3661 3661 
3057 3496 3700 3770 3770 3770 3770 3770 3770 3770 3770 3770 3770 3770 3770 3770 3770 3770 3770 3770 3770 3770 3770 3770 3770 3770 3770 3770 3770 3770 
3156 3519 3746 3770 3770 3770 3770 3770 3770 3770 3770 3770 3770 3770 3770 3770 3770 3770 3770 3770 3770 3770 3770 3770 3770 3770 3770 3770 3770 3770 
3177 3598 3759 3770 3770 3770 3770 3770 3770 3770 3770 3770 3770 3770 3770 3770 3770 3770 3770 3770 3770 3770 3770 3770 3770 3770 3770 3770 3770 3770 
3180 3677 3777 3858 3858 3858 3858 3858 3858 3858 3858 3858 3858 3858 3858 3858 3858 3858 3858 3858 3858 3858 3858 3858 3858 3858 3858 3858 3858 3858 
3215 3699 3819 3858 3858 3858 3858 3858 3858 3858 3858 3858 3858 3858 3858 3858 3858 3858 3858 3858 3858 3858 3858 3858 3858 3858 3858 3858 3858 3858 
3253 3791 3902 3969 3969 3969 3969 3969 3969 3969 3969 3969 3969 3969 3969 3969 3969 3969 3969 3969 3969 3969 3969 3969 3969 3969 3969 3969 3969 3969 
3319 3844 3922 3969 3969 3969 3969 3969 3969 3969 3969 3969 3969 3969 3969 3969 3969 3969 3969 3969 3969 3969 3969 3969 3969 3969 3969 3969 3969 3969 
3384 3940 4012 4012 4012 4012 4012 4012 4012 4012 4012 4012 4012 4012 4012 4012 4012 4012 4012 4012 4012 4012 4012 4012 4012 4012 4012 4012 4012 4012 
3392 4031 4111 4181 4181 4181 4181 4181 4181 4181 4181 4181 4181 4181 4181 4181 4181 4181 4181 4181 4181 4181 4181 4181 4181 4181 4181 4181 4181 4181 
3449 4125 4168 4203 4203 4203 4203 4203 4203 4203 4203 4203 4203 4203 4203 4203 4203 4203 4203 4203 4203 4203 4203 4203 4203 4203 4203 4203 4203 4203 
3518 4158 4230 4230 4230 4230 4230 4230 4230 4230 4230 4230 4230 4230 4230 4230 4230 4230 4230 4230 4230 4230 4230 4230 4230 4230 4230 4230 4230 4230 
3528 4164 4242 4295 4295 4295 4295 4295 4295 4295 4295 4295 4295 4295 4295 4295 4295 4295 4295 4295 4295 4295 4295 4295 4295 4295 4295 4295 4295 4295 
3627 4188 4317 4317 4317 4317 4317 4317 4317 4317 4317 4317 4317 4317 4317 4317 4317 4317 4317 4317 4317 4317 4317 4317 4317 4317 4317 4317 4317 4317 
3711 4232 4366 4432 4432 4432 4432 4432 4432 4432 4432 4432 4432 4432 4432 4432 4432 4432 4432 4432 4432 4432 4432 4432 4432 4432 4432 4432 4432 4432 
3779 4324 4433 4446 4446 4446 4446 4446 4446 4446 4446 4446 4446 4446 4446 4446 4446 4446 4446 4446 4446 4446 4446 4446 4446 4446 4446 4446 4446 4446 
3871 4342 4486 4500 4500 4500 4500 4500 4500 4500 4500 4500 4500 4500 4500 4500 4500 4500 4500 4500 4500 4500 4500 4500 4500 4500 4500 4500 4500 4500 
3899 4348 4506 4506 4506 4506 4506 4506 4506 4506 4506 4506 4506 4506 4506 4506 4506 4506 4506 4506 4506 4506 4506 4506 4506 4506 4506 4506 4506 4506 
3932 4351 4591 4681 4681 4681 4681 4681 4681 4681 4681 4681 4681 4681 4681 4681 4681 4681 4681 4681 4681 4681 4681 4681 4681 4681 4681 4681 4681 4681 
4004 4442 4603 4681 4681 4681 4681 4681 4681 4681 4681 4681 4681 4681 4681 4681 4681 4681 4681 4681 4681 4681 4681 4681 4681 4681 4681 4681 4681 4681 
4040 4521 4613 4681 4681 4681 4681 4681 4681 4681 4681 4681 4681 4681 4681 4681 4681 4681 4681 4681 4681 4681 4681 4681 4681 4681 4681 4681 4681 4681 
4138 4534 4713 4713 4713 4713 4713 4713 4713 4713 4713 4713 4713 4713 4713 4713 4713 4713 4713 4713 4713 4713 4713 4713 4713 4713 4713 4713 4713 4713 
4202 4629 4802 4802 4802 4802 4802 4802 4802 4802 4802 4802 4802 4802 4802 4802 4802 4802 4802 4802 4802 4802 4802 4802 4802 4802 4802 4802 4802 4802 
4238 4638 4898 4898 4898 4898 4898 4898 4898 4898 4898 4898 4898 4898 4898 4898 4898 4898 4898 4898 4898 4898 4898 4898 4898 4898 4898 4898 4898 4898 
4276 4700 4927 4927 4927 4927 4927 4927 4927 4927 4927 4927 4927 4927 4927 4927 4927 4927 4927 4927 4927 4927 4927 4927 4927 4927 4927 4927 4927 4927 
4372 4771 4998 5069 5069 5069 5069 5069 5069 5069 5069 5069 5069 5069 5069 5069 5069 5069 5069 5069 5069 5069 5069 5069 5069 5069 5069 5069 5069 5069 
4440 4823 5056 5069 5069 5069 5069 5069 5069 5069 5069 5069 5069 5069 5069 5069 5069 5069 5069 5069 5069 5069 5069 5069 5069 5069 5069 5069 5069 5069 
4509 4857 5124 5124 5124 5124 5124 5124 5124 5124 5124 5124 5124 5124 5124 5124 5124 5124 5124 5124 5124 5124 5124 5124 5124 5124 5124 5124 5124 5124 
4587 4897 5175 5175 5175 5175 5175 5175 5175 5175 5175 5175 5175 5175 5175 5175 5175 5175 5175 5175 5175 5175 5175 5175 5175 5175 5175 5175 5175 5175 
4611 4926 5233 5289 5289 5289 5289 5289 5289 5289 5289 5289 5289 5289 5289 5289 5289 5289 5289 5289 5289 5289 5289 5289 5289 5289 5289 5289 5289 5289 
4646 5007 5302 5302 5302 5302 5302 5302 5302 5302 5302 5302 5302 5302 5302 5302 5302 5302 5302 5302 5302 5302 5302 5302 5302 5302 5302 5302 5302 5302 
4682 5061 5376 5383 5383 5383 5383 5383 5383 5383 5383 5383 5383 5383 5383 5383 5383 5383 5383 5383 5383 5383 5383 5383 5383 5383 5383 5383 5383 5383 
4715 5086 5476 5556 5556 5556 5556 5556 5556 5556 5556 5556 5556 5556 5556 5556 5556 5556 5556 5556 5556 5556 5556 5556 5556 5556 5556 5556 5556 5556 
4799 5117 5526 5556 5556 5556 5556 5556 5556 5556 5556 5556 5556 5556 5556 5556 5556 5556 5556 5556 5556 5556 5556 5556 5556 5556 5556 5556 5556 5556 
4806 5175 5562 5565 5565 5565 5565 5565 5565 5565 5565 5565 5565 5565 5565 5565 5565 5565 5565 5565 5565 5565 5565 5565 5565 5565 5565 5565 5565 5565 
4851 5268 5626 5627 5627 5627 5627 5627 5627 5627 5627 5627 5627 5627 5627 5627 5627 5627 5627 5627 5627 5627 5627 5627 5627 5627 5627 5627 5627 5627 
4934 5332 5682 5682 5682 5682 5682 5682 5682 5682 5682 5682 5682 5682 5682 5682 5682 5682 5682 5682 5682 5682 5682 5682 5682 5682 5682 5682 5682 5682 
4937 5363 5754 5754 5754 5754 5754 5754 5754 5754 5754 5754 5754 5754 5754 5754 5754 5754 5754 5754 5754 5754 5754 5754 5754 5754 5754 5754 5754 5754 
5018 5458 5783 5790 5790 5790 5790 5790 5790 5790 5790 5790 5790 5790 5790 5790 5790 5790 5790 5790 5790 5790 5790 5790 5790 5790 5790 5790 5790 5790 
5045 5501 5797 5819 5819 5819 5819 5819 5819 5819 5819 5819 5819 5819 5819 5819 5819 5819 5819 5819 5819 5819 5819 5819 5819 5819 5819 5819 5819 5819 
5137 5575 5865 5865 5865 5865 5865 5865 5865 5865 5865 5865 5865 5865 5865 5865 5865 5865 5865 5865 5865 5865 5865 5865 5865 5865 5865 5865 5865 5865 
5229 5663 5937 5937 5937 5937 5937 5937 5937 5937 5937 5937 5937 5937 5937 5937 5937 5937 5937 5937 5937 5937 5937 5937 5937 5937 5937 5937 5937 5937 
5251 5668 6012 6012 6012 6012 6012 6012 6012 6012 6012 6012 6012 6012 6012 6012 6012 6012 6012 6012 6012 6012 6012 6012 6012 6012 6012 6012 6012 6012 
5256 5701 6045 6045 6045 6045 6045 6045 6045 6045 6045 6045 6045 6045 6045 6045 6045 6045 6045 6045 6045 6045 6045 6045 6045 6045 6045 6045 6045 6045 
5334 5794 6070 6098 6098 6098 6098 6098 6098 6098 6098 6098 6098 6098 6098 6098 6098 6098 6098 6098 6098 6098 6098 6098 6098 6098 6098 6098 6098 6098 
5341 5866 6168 6210 6210 6210 6210 6210 6210 6210 6210 6210 6210 6210 6210 6210 6210 6210 6210 6210 6210 6210 6210 6210 6210 6210 6210 6210 6210 6210 
5395 5868 6262 6262 6262 6262 6262 6262 6262 6262 6262 6262 6262 6262 6262 6262 6262 6262 6262 6262 6262 6262 6262 6262 6262 6262 6262 6262 6262 6262 
5463 5965 6346 6382 6382 6382 6382 6382 6382 6382 6382 6382 6382 6382 6382 6382 6382 6382 6382 6382 6382 6382 6382 6382 6382 6382 6382 6382 6382 6382 
5524 6008 6407 6407 6407 6407 6407 6407 6407 6407 6407 6407 6407 6407 6407 6407 6407 6407 6407 6407 6407 6407 6407 6407 6407 6407 6407 6407 6407 6407 
5586 6026 6454 6536 6536 6536 6536 6536 6536 6536 6536 6536 6536 6536 6536 6536 6536 6536 6536 6536 6536 6536 6536 6536 6536 6536 6536 6536 6536 6536 
5611 6047 6529 6633 6633 6633 6633 6633 6633 6633 6633 6633 6633 6633 6633 6633 6633 6633 6633 6633 6633 6633 6633 6633 6633 6633 6633 6633 6633 6633 
5624 6092 6593 6633 6633 6633 6633 6633 6633 6633 6633 6633 6633 6633 6633 6633 6633 6633 6633 6633 6633 6633 6633 6633 6633 6633 6633 6633 6633 6633 
5672 6097 6618 6633 6633 6633 6633 6633 6633 6633 6633 6633 6633 6633 6633 6633 6633 6633 6633 6633 6633 6633 6633 6633 6633 6633 6633 6633 6633 6633 
5745 6104 6658 6715 6715 6715 6715 6715 6715 6715 6715 6715 6715 6715 6715 6715 6715 6715 6715 6715 6715 6715 6715 6715 6715 6715 6715 6715 6715 6715 
5749 6167 6751 6828 6828 6828 6828 6828 6828 6828 6828 6828 6828 6828 6828 6828 6828 6828 6828 6828 6828 6828 6828 6828 6828 6828 6828 6828 6828 6828 
5846 6251 6801 6828 6828 6828 6828 6828 6828 6828 6828 6828 6828 6828 6828 6828 6828 6828 6828 6828 6828 6828 6828 6828 6828 6828 6828 6828 6828 6828 
5863 6324 6868 6868 6868 6868 6868 6868 6868 6868 6868 6868 6868 6868 6868 6868 6868 6868 6868 6868 6868 6868 6868 6868 6868 6868 6868 6868 6868 6868 
5952 6363 6873 6942 6942 6942 6942 6942 6942 6942 6942 6942 6942 6942 6942 6942 6942 6942 6942 6942 6942 6942 6942 6942 6942 6942 6942 6942 6942 6942 
6019 6388 6965 6965 6965 6965 6965 6965 6965 6965 6965 6965 6965 6965 6965 6965 6965 6965 6965 6965 6965 6965 6965 6965 6965 6965 6965 6965 6965 6965 
6057 6488 6999 6999 6999 6999 6999 6999 6999 6999 6999 6999 6999 6999 6999 6999 6999 6999 6999 6999 6999 6999 6999 6999 6999 6999 6999 6999 6999 6999 
6117 6567 7033 7058 7058 7058 7058 7058 7058 7058 7058 7058 7058 7058 7058 7058 7058 7058 7058 7058 7058 7058 7058 7058 7058 7058 7058 7058 7058 7058 
6173 6648 7041 7078 7078 7078 7078 7078 7078 7078 7078 7078 7078 7078 7078 7078 7078 7078 7078 7078 7078 7078 7078 7078 7078 7078 7078 7078 7078 7078 
6178 6658 7126 7160 7160 7160 7160 7160 7160 7160 7160 7160 7160 7160 7160 7160 7160 7160 7160 7160 7160 7160 7160 7160 7160 7160 7160 7160 7160 7160 
6236 6691 7138 7160 7160 7160 7160 7160 7160 7160 7160 7160 7160 7160 7160 7160 7160 7160 7160 7160 7160 7160 7160 7160 7160 7160 7160 7160 7160 7160 
6250 6789 7238 7238 7238 7238 7238 7238 7238 7238 7238 7238 7238 7238 7238 7238 7238 7238 7238 7238 7238 7238 7238 7238 7238 7238 7238 7238 7238 7238 
6290 6825 7300 7300 7300 7300 7300 7300 7300 7300 7300 7300 7300 7300 7300 7300 7300 7300 7300 7300 7300 7300 7300 7300 7300 7300 7300 7300 7300 7300 
6362 6850 7393 7424 7424 7424 7424 7424 7424 7424 7424 7424 7424 7424 7424 7424 7424 7424 7424 7424 7424 7424 7424 7424 7424 7424 7424 7424 7424 7424 
6414 6862 7397 7463 7463 7463 7463 7463 7463 7463 7463 7463 7463 7463 7463 7463 7463 7463 7463 7463 7463 7463 7463 7463 7463 7463 7463 7463 7463 7463 
6429 6875 7495 7551 7551 7551 7551 7551 7551 7551 7551 7551 7551 7551 7551 7551 7551 7551 7551 7551 7551 7551 7551 7551 7551 7551 7551 7551 7551 7551 
6457 6938 7518 7613 7613 7613 7613 7613 7613 7613 7613 7613 7613 7613 7613 7613 7613 7613 7613 7613 7613 7613 7613 7613 7613 7613 7613 7613 7613 7613 
6503 7009 7553 7635 7635 7635 7635 7635 7635 7635 7635 7635 7635 7635 7635 7635 7635 7635 7635 7635 7635 7635 7635 7635 7635 7635 7635 7635 7635 7635 
6602 7075 7647 7647 7647 7647 7647 7647 7647 7647 7647 7647 7647 7647 7647 7647 7647 7647 7647 7647 7647 7647 7647 7647 7647 7647 7647 7647 7647 7647 
6617 7136 7662 7662 7662 7662 7662 7662 7662 7662 7662 7662 7662 7662 7662 7662 7662 7662 7662 7662 7662 7662 7662 7662 7662 7662 7662 7662 7662 7662 
6697 7229 7758 7821 7821 7821 7821 7821 7821 7821 7821 7821 7821 7821 7821 7821 7821 7821 7821 7821 7821 7821 7821 7821 7821 7821 7821 7821 7821 7821 
6712 7248 7824 7887 7887 7887 7887 7887 7887 7887 7887 7887 7887 7887 7887 7887 7887 7887 7887 7887 7887 7887 7887 7887 7887 7887 7887 7887 7887 7887 
6749 7286 7829 7887 7887 7887 7887 7887 7887 7887 7887 7887 7887 7887 7887 7887 7887 7887 7887 7887 7887 7887 7887 7887 7887 7887 7887 7887 7887 7887 
6808 7295 7869 7893 7893 7893 7893 7893 7893 7893 7893 7893 7893 7893 7893 7893 7893 7893 7893 7893 7893 7893 7893 7893 7893 7893 7893 7893 7893 7893 
6823 7380 7898 7898 7898 7898 7898 7898 7898 7898 7898 7898 7898 7898 7898 7898 7898 7898 7898 7898 7898 7898 7898 7898 7898 7898 7898 7898 7898 7898 
6868 7475 7997 7997 7997 7997 7997 7997 7997 7997 7997 7997 7997 7997 7997 7997 7997 7997 7997 7997 7997 7997 7997 7997 7997 7997 7997 7997 7997 7997 
6926 7478 8007 8057 8057 8057 8057 8057 8057 8057 8057 8057 8057 8057 8057 8057 8057 8057 8057 8057 8057 8057 8057 8057 8057 8057 8057 8057 8057 8057 
6999 7519 8028 8057 8057 8057 8057 8057 8057 8057 8057 8057 8057 8057 8057 8057 8057 8057 8057 8057 8057 8057 8057 8057 8057 8057 8057 8057 8057 8057 
7029 7584 8083 8083 8083 8083 8083 8083 8083 8083 8083 8083 8083 8083 8083 8083 8083 8083 8083 8083 8083 8083 8083 8083 8083 8083 8083 8083 8083 8083 
7031 7590 8104 8104 8104 8104 8104 8104 8104 8104 8104 8104 8104 8104 8104 8104 8104 8104 8104 8104 8104 8104 8104 8104 8104 8104 8104 8104 8104 8104 
7086 7607 8177 8190 8190 8190 8190 8190 8190 8190 8190 8190 8190 8190 8190 8190 8190 8190 8190 8190 8190 8190 8190 8190 8190 8190 8190 8190 8190 8190 
7099 7636 8216 8216 8216 8216 8216 8216 8216 8216 8216 8216 8216 8216 8216 8216 8216 8216 8216 8216 8216 8216 8216 8216 8216 8216 8216 8216 8216 8216 
7178 7698 8235 8306 8306 8306 8306 8306 8306 8306 8306 8306 8306 8306 8306 8306 8306 8306 8306 8306 8306 8306 8306 8306 8306 8306 8306 8306 8306 8306 
7190 7774 8331 8331 8331 8331 8331 8331 8331 8331 8331 8331 8331 8331 8331 8331 8331 8331 8331 8331 8331 8331 8331 8331 8331 8331 8331 8331 8331 8331 
7199 7852 8377 8459 8459 8459 8459 8459 8459 8459 8459 8459 8459 8459 8459 8459 8459 8459 8459 8459 8459 8459 8459 8459 8459 8459 8459 8459 8459 8459 
7217 7928 8470 8470 8470 8470 8470 8470 8470 8470 8470 8470 8470 8470 8470 8470 8470 8470 8470 8470 8470 8470 8470 8470 8470 8470 8470 8470 8470 8470 
Sequência de Tarefas - Solução Final
8 35 113 34 111 124 72 101 23 58 96 94 6 114 69 98 146 115 73 53 99 56 50 57 48 52 70 32 88 149 107 10 95 123 54 21 3 145 77 143 42 25 102 125 9 79 106 126 118 17 109 64 49 67 18 81 137 78 84 59 41 47 24 127 142 11 83 2 104 117 43 4 86 16 134 44 45 55 122 66 92 133 116 136 119 130 7 93 100 144 33 80 14 62 103 39 30 148 150 15 63 110 75 76 138 12 65 91 26 139 37 36 141 90 19 27 74 121 29 85 131 5 40 28 87 135 147 46 38 13 60 31 132 82 51 20 140 22 89 108 1 112 97 120 71 129 61 128 68 105 

Squencia que diminui o atraso Maximo:
Novo Atraso = 5907
147 26 124 31 128 47 45 85 150 100 134 35 21 11 88 49 114 67 61 138 106 7 110 25 13 92 51 48 76 64 122 72 97 37 125 15 65 16 119 9 121 40 118 57 58 53 123 111 10 1 99 116 17 63 96 50 12 144 19 103 24 112 79 69 109 62 70 68 132 82 137 78 29 71 95 4 126 46 142 120 102 20 66 42 80 105 133 117 43 143 39 30 27 41 101 141 113 34 56 32 135 22 131 104 146 77 130 90 139 127 115 36 148 86 89 6 5 28 52 38 44 8 18 3 23 75 129 59 74 107 60 108 83 145 94 93 14 33 91 2 81 55 140 98 149 73 84 54 136 87 

Squencia que diminui o atraso Maximo:
Novo Atraso = 5590
141 16 19 102 95 144 68 129 81 46 138 64 47 63 118 107 34 128 41 142 44 42 54 17 97 120 148 73 146 29 33 101 109 100 37 89 75 59 143 122 114 90 110 6 74 70 139 50 106 91 103 136 27 57 150 30 45 149 80 93 52 71 20 62 7 24 13 92 18 105 124 55 11 94 14 49 31 125 117 36 58 1 131 78 10 137 48 67 15 25 28 23 130 112 12 26 53 121 135 79 88 69 111 108 32 104 98 132 43 86 4 133 22 77 140 76 145 147 127 5 66 96 51 115 126 60 116 65 40 123 9 72 35 83 85 84 39 2 21 82 87 38 8 119 99 134 56 3 113 61 

Squencia que diminui o atraso Maximo:
Novo Atraso = 5577
133 97 98 49 2 57 59 50 137 86 83 126 14 116 29 105 20 94 117 131 24 30 6 75 53 5 119 145 140 77 123 134 91 122 93 33 65 114 109 66 62 36 17 143 95 72 79 25 96 101 22 78 124 32 1 92 102 120 121 7 138 132 63 107 60 51 68 21 52 43 146 90 82 10 125 61 55 9 11 130 147 70 104 18 148 26 127 128 48 141 58 115 85 41 37 40 39 47 12 84 67 71 89 19 110 27 144 135 4 16 113 80 64 3 149 118 76 8 56 73 44 45 99 15 42 69 28 34 87 103 23 139 88 111 100 129 31 81 108 54 38 150 46 136 106 142 35 13 74 112 
Atraso Máximo: 5577
Tempo: 0.041681 segundos
